NAME: ACTUAL_TOURS/amz2126
TYPE: TOUR
COMMENT: RouteID_e13286bc-c46f-49c0-b876-d5493c1e3fe9
DIMENSION: 96
TOUR_SECTION
80
87
17
68
56
85
59
33
3
71
40
75
21
92
55
53
57
38
84
8
78
15
5
88
11
64
58
49
18
6
4
2
54
51
19
26
73
72
70
94
14
61
67
37
7
42
36
77
28
25
86
82
45
62
48
47
91
30
43
9
46
50
41
13
22
95
52
81
10
12
27
96
44
66
79
63
39
23
90
89
65
24
1
20
31
93
29
74
35
83
76
32
16
60
34
69
-1
EOF
